words_hard_train/7439.qaiger
aag 76 16 0 1 60
2
4
8
10
14
16
24
26
32
34
40
44
48
52
56
60
153
6 3 4
12 9 11
18 15 17
20 12 18
22 6 20
28 25 27
30 22 28
36 32 35
38 37 35
42 39 40
46 43 45
50 47 48
54 50 52
58 55 57
62 59 60
64 58 61
66 63 65
68 66 5
70 54 56
72 71 59
74 73 10
76 69 75
78 46 49
80 79 51
82 80 2
84 51 53
86 85 55
88 86 16
90 83 89
92 42 44
94 93 47
96 94 15
98 38 41
100 99 43
102 34 9
104 103 37
106 33 25
108 35 8
110 106 109
112 104 111
114 113 27
116 100 115
118 112 26
120 117 119
122 95 14
124 120 123
126 97 125
128 81 3
130 126 129
132 90 131
134 87 17
136 133 135
138 72 11
140 136 139
142 76 141
144 67 4
146 143 145
148 30 146
150 31 147
152 149 151
i0 2 y2[4]
i1 2 y2[7]
i2 2 y2[1]
i3 2 y2[6]
i4 2 y2[3]
i5 2 y2[5]
i6 2 y2[0]
i7 2 y2[2]
i8 1 x1[0]
i9 1 x1[1]
i10 1 x1[2]
i11 1 x1[3]
i12 1 x1[4]
i13 1 x1[5]
i14 1 x1[6]
i15 1 x1[7]
o0 bv[0]
c
simplified
  <
    add
      xor
        1
        -54
      1 x1
    unary minus
      2 y2
