words_hard_train/7439.qaiger.qdimacs
p cnf 76 181
a 16 17 20 22 24 26 28 30 0
e 1 2 3 4 5 6 7 8 9 10 11 12 13 14 15 18 19 21 23 25 27 29 31 32 33 34 35 36 37 38 39 40 41 42 43 44 45 46 47 48 49 50 51 52 53 54 55 56 57 58 59 60 61 62 63 64 65 66 67 68 69 70 71 72 73 74 75 76 0
1 -2 3 0
-1 -3 0
2 -3 0
4 5 6 0
-4 -6 0
-5 -6 0
7 8 9 0
-7 -9 0
-8 -9 0
-6 -9 10 0
6 -10 0
9 -10 0
-3 -10 11 0
3 -11 0
10 -11 0
12 13 14 0
-12 -14 0
-13 -14 0
-11 -14 15 0
11 -15 0
14 -15 0
-16 17 18 0
16 -18 0
-17 -18 0
18 17 19 0
-18 -19 0
-17 -19 0
19 -20 21 0
-19 -21 0
20 -21 0
21 22 23 0
-21 -23 0
-22 -23 0
23 -24 25 0
-23 -25 0
24 -25 0
-25 -26 27 0
25 -27 0
26 -27 0
27 28 29 0
-27 -29 0
-28 -29 0
29 -30 31 0
-29 -31 0
30 -31 0
-29 30 32 0
29 -32 0
-30 -32 0
31 32 33 0
-31 -33 0
-32 -33 0
-33 2 34 0
33 -34 0
-2 -34 0
-27 -28 35 0
27 -35 0
28 -35 0
35 29 36 0
-35 -36 0
-29 -36 0
36 -5 37 0
-36 -37 0
5 -37 0
34 37 38 0
-34 -38 0
-37 -38 0
-23 24 39 0
23 -39 0
-24 -39 0
39 25 40 0
-39 -40 0
-25 -40 0
-40 -1 41 0
40 -41 0
1 -41 0
25 26 42 0
-25 -42 0
-26 -42 0
42 27 43 0
-42 -43 0
-27 -43 0
-43 -8 44 0
43 -44 0
8 -44 0
41 44 45 0
-41 -45 0
-44 -45 0
-21 -22 46 0
21 -46 0
22 -46 0
46 23 47 0
-46 -47 0
-23 -47 0
-47 7 48 0
47 -48 0
-7 -48 0
-19 20 49 0
19 -49 0
-20 -49 0
49 21 50 0
-49 -50 0
-21 -50 0
-17 4 51 0
17 -51 0
-4 -51 0
51 18 52 0
-51 -52 0
-18 -52 0
16 12 53 0
-16 -53 0
-12 -53 0
17 -4 54 0
-17 -54 0
4 -54 0
-53 54 55 0
53 -55 0
-54 -55 0
-52 55 56 0
52 -56 0
-55 -56 0
56 13 57 0
-56 -57 0
-13 -57 0
-50 57 58 0
50 -58 0
-57 -58 0
-56 -13 59 0
56 -59 0
13 -59 0
58 59 60 0
-58 -60 0
-59 -60 0
47 -7 61 0
-47 -61 0
7 -61 0
-60 61 62 0
60 -62 0
-61 -62 0
48 62 63 0
-48 -63 0
-62 -63 0
40 1 64 0
-40 -64 0
-1 -64 0
-63 64 65 0
63 -65 0
-64 -65 0
-45 65 66 0
45 -66 0
-65 -66 0
43 8 67 0
-43 -67 0
-8 -67 0
66 67 68 0
-66 -68 0
-67 -68 0
-36 5 69 0
36 -69 0
-5 -69 0
-68 69 70 0
68 -70 0
-69 -70 0
-38 70 71 0
38 -71 0
-70 -71 0
33 -2 72 0
-33 -72 0
2 -72 0
71 72 73 0
-71 -73 0
-72 -73 0
-15 -73 74 0
15 -74 0
73 -74 0
15 73 75 0
-15 -75 0
-73 -75 0
74 75 76 0
-74 -76 0
-75 -76 0
-76 0
